Data path: /scratch/opt/lxu/CFLG/benchmarks/random_A
Instance: r_20_0.4_69.txt
Result path: /scratch/opt/lxu/CFLG/results/random_A
Solver: Gurobi
Time limit: 7200
Formulation: LEFPAV
Cover: Large
julia --project=. src/main.jl /scratch/opt/lxu/CFLG/benchmarks/random_A r_20_0.4_69.txt /scratch/opt/lxu/CFLG/results/random_A Gurobi 7200 LEFPAV Large
The latest version of Julia in the `release` channel is 1.11.6+0.x64.linux.gnu. You currently have `1.11.4+0.x64.linux.gnu` installed. Run:

  juliaup update

in your terminal shell to install Julia 1.11.6+0.x64.linux.gnu and update the `release` channel to that version.
/scratch/opt/lxu/CFLG/benchmarks/random_A Gurobi 7200.0 /scratch/opt/lxu/CFLG/results/random_A r_20_0.4_69.txt LEFPAV Large
/scratch/opt/lxu/CFLG/benchmarks/random_A/r_20_0.4_69.txt

 read graph
data loaded

problem_graph/original graph: node: 20/20 edge: 69/69 dlt: 1.2450892085363634 break_avg_len: 0.6225446042681817 break_max_len: 0.9827397640132096Vbar/V, Ebar/E(20, 20, 69, 69)
Set parameter TokenServer to value "solice01.zib.de"
Set parameter Threads to value 1
Set parameter OutputFlag to value 1
Gurobi Optimizer version 12.0.1 build v12.0.1rc0 (linux64 - "Debian GNU/Linux 12 (bookworm)")

CPU model: Intel(R) Xeon(R) Gold 5222 CPU @ 3.80GHz, instruction set [SSE2|AVX|AVX2|AVX512]
Thread count: 8 physical cores, 16 logical processors, using up to 1 threads

Non-default parameters:
Threads  1

Optimize a model with 89 rows, 207 columns and 345 nonzeros
Model fingerprint: 0xc1d7f36d
Coefficient statistics:
  Matrix range     [1e+00, 1e+00]
  Objective range  [1e+00, 1e+00]
  Bounds range     [1e+00, 1e+00]
  RHS range        [1e+00, 1e+00]
Presolve time: 0.00s
Presolved: 89 rows, 207 columns, 345 nonzeros

Iteration    Objective       Primal Inf.    Dual Inf.      Time
       0    6.9000000e+01   8.800000e+01   0.000000e+00      0s
      57    2.0000000e+01   0.000000e+00   0.000000e+00      0s

Solved in 57 iterations and 0.00 seconds (0.00 work units)
Optimal objective  2.000000000e+01

User-callback calls 101, time in user-callback 0.00 sec
elapsed CPU time: 0.949305 seconds
Set parameter TokenServer to value "solice01.zib.de"
Set parameter Threads to value 1
Set parameter OutputFlag to value 1
Set parameter MIPGap to value 0.0001
Set parameter TimeLimit to value 7199.050695

 more cuts: false 1.2450892085363634 false
is_attach:trueformulation:LEFPAV0 69 20
Set parameter PreCrush to value 1

 model loaded

Gurobi Optimizer version 12.0.1 build v12.0.1rc0 (linux64 - "Debian GNU/Linux 12 (bookworm)")

CPU model: Intel(R) Xeon(R) Gold 5222 CPU @ 3.80GHz, instruction set [SSE2|AVX|AVX2|AVX512]
Thread count: 8 physical cores, 16 logical processors, using up to 1 threads

Non-default parameters:
TimeLimit  7199.050695
PreCrush  1
Threads  1

Optimize a model with 5940 rows, 2819 columns and 17513 nonzeros
Model fingerprint: 0xef175b5a
Variable types: 158 continuous, 2661 integer (2661 binary)
Coefficient statistics:
  Matrix range     [1e-06, 2e+00]
  Objective range  [1e+00, 1e+00]
  Bounds range     [3e-01, 1e+00]
  RHS range        [3e-01, 1e+01]
Found heuristic solution: objective 12.0000000
Presolve removed 1261 rows and 87 columns
Presolve time: 0.04s
Presolved: 4679 rows, 2732 columns, 16087 nonzeros
Variable types: 89 continuous, 2643 integer (2643 binary)

Root relaxation: objective 1.000000e+00, 1491 iterations, 0.02 seconds (0.04 work units)

    Nodes    |    Current Node    |     Objective Bounds      |     Work
 Expl Unexpl |  Obj  Depth IntInf | Incumbent    BestBd   Gap | It/Node Time

     0     0    1.00000    0   10   12.00000    1.00000  91.7%     -    0s
H    0     0                       3.0000000    1.00000  66.7%     -    0s
elapsed CPU time: 1.3841716341218139e13 seconds
     0     0    1.00000    0   85    3.00000    1.00000  66.7%     -    0s
elapsed CPU time: 0.01533 seconds
     0     0    1.00000    0  241    3.00000    1.00000  66.7%     -    0s
elapsed CPU time: 0.04474 seconds
     0     0    1.00000    0   62    3.00000    1.00000  66.7%     -    1s
elapsed CPU time: 0.013721 seconds
     0     0    1.00000    0   61    3.00000    1.00000  66.7%     -    1s
elapsed CPU time: 0.031252 seconds
H    0     0                       2.0000000    1.00000  50.0%     -    1s
elapsed CPU time: 0.013902 seconds
     0     2    1.00000    0   60    2.00000    1.00000  50.0%     -    1s

Cutting planes:
  User: 22
  Learned: 15
  Cover: 5
  Implied bound: 1
  Clique: 11
  MIR: 107
  StrongCG: 1
  Relax-and-lift: 2

Explored 1 nodes (16461 simplex iterations) in 1.84 seconds (1.85 work units)
Thread count was 1 (of 16 available processors)

Solution count 3: 2 3 12 

Optimal solution found (tolerance 1.00e-04)
Best objective 2.000000000000e+00, best bound 2.000000000000e+00, gap 0.0000%

User-callback calls 664, time in user-callback 1.19 sec

 sepatime1.3841716341218258e13 1380 6
2.0
Stat(MathOptInterface.OPTIMAL, 2.0, 2.0, 0.0, 1.3841716341218258e13, 0.949305, 1.8431830406188965, 1, Main.CFLG.LEFPAV, "", #undef)
